
******************************************************************************
This program contains Ipopt, a library for large-scale nonlinear optimization.
 Ipopt is released as open source code under the Eclipse Public License (EPL).
         For more information visit http://projects.coin-or.org/Ipopt

This version of Ipopt was compiled from source code available at
    https://github.com/IDAES/Ipopt as part of the Institute for the Design of
    Advanced Energy Systems Process Systems Engineering Framework (IDAES PSE
    Framework) Copyright (c) 2018-2019. See https://github.com/IDAES/idaes-pse.

This version of Ipopt was compiled using HSL, a collection of Fortran codes
    for large-scale scientific computation.  All technical papers, sales and
    publicity material resulting from use of the HSL codes within IPOPT must
    contain the following acknowledgement:
        HSL, a collection of Fortran codes for large-scale scientific
        computation. See http://www.hsl.rl.ac.uk.
******************************************************************************

This is Ipopt version 3.13.2, running with linear solver ma27.

Number of nonzeros in equality constraint Jacobian...:      808
Number of nonzeros in inequality constraint Jacobian.:        0
Number of nonzeros in Lagrangian Hessian.............:      702

Total number of variables............................:      351
                     variables with only lower bounds:      108
                variables with lower and upper bounds:      189
                     variables with only upper bounds:        0
Total number of equality constraints.................:      350
Total number of inequality constraints...............:        0
        inequality constraints with only lower bounds:        0
   inequality constraints with lower and upper bounds:        0
        inequality constraints with only upper bounds:        0

iter    objective    inf_pr   inf_du lg(mu)  ||d||  lg(rg) alpha_du alpha_pr  ls
   0  0.0000000e+00 8.55e-01 1.78e-15  -1.0 0.00e+00    -  0.00e+00 0.00e+00   0
   1  8.2490793e-01 1.26e-01 1.24e+03  -1.0 6.34e+04    -  5.35e-01 9.90e-01h  1
   2  8.9194148e-01 5.68e-02 1.13e+04  -1.0 3.12e+03    -  9.71e-01 9.90e-01h  1
   3  8.8827378e-01 4.39e-03 1.96e+03  -1.0 4.37e+03    -  9.81e-01 9.90e-01h  1
   4  8.9566159e-01 5.42e-04 7.85e+05  -1.0 2.39e+04    -  3.26e-01 2.48e-01h  3
   5  8.9564599e-01 5.32e-06 7.85e+03  -1.0 9.84e+00  -4.0 9.90e-01 9.90e-01h  1
   6  8.9546503e-01 8.70e-07 1.52e+03  -1.7 9.21e+01    -  9.90e-01 9.90e-01h  1
   7  8.9127503e-01 7.49e-04 9.51e+07  -3.8 5.09e+03    -  9.76e-01 5.00e-01f  2
   8  8.8794424e-01 5.71e-04 7.44e+04  -3.8 4.16e+03    -  1.00e+00 1.00e+00H  1
In iteration 8, 27 Slacks too small, adjusting variable bounds
   9  8.8780477e-01 1.60e-04 4.00e+08  -3.8 8.42e+02    -  1.00e+00 1.00e+00h  1
iter    objective    inf_pr   inf_du lg(mu)  ||d||  lg(rg) alpha_du alpha_pr  ls
  10  8.8779932e-01 1.67e-06 3.89e-04  -3.8 1.17e+02    -  1.00e+00 1.00e+00h  1
  11  8.8779765e-01 2.47e-06 5.54e+05  -8.6 1.13e+02    -  9.99e-01 1.00e+00h  1
  12  8.8779765e-01 5.10e-10 7.64e-08  -8.6 1.97e+00    -  1.00e+00 1.00e+00h  1

Number of Iterations....: 12

                                   (scaled)                 (unscaled)
Objective...............:   8.8779764604325218e-01    8.8779764604325218e-01
Dual infeasibility......:   7.6361175160855055e-08    7.6361175160855055e-08
Constraint violation....:   5.1044296567326342e-10    5.1044296567326342e-10
Complementarity.........:   3.5454836640768831e-09    3.5454836640768831e-09
Overall NLP error.......:   8.1144504747112064e-09    7.6361175160855055e-08


Number of objective function evaluations             = 22
Number of objective gradient evaluations             = 13
Number of equality constraint evaluations            = 22
Number of inequality constraint evaluations          = 0
Number of equality constraint Jacobian evaluations   = 13
Number of inequality constraint Jacobian evaluations = 0
Number of Lagrangian Hessian evaluations             = 12
Total CPU secs in IPOPT (w/o function evaluations)   =      0.026
Total CPU secs in NLP function evaluations           =      0.233

EXIT: Optimal Solution Found.
